1, 38, 40, 41, 49, 48, 50, 51, 43, 42, 39, 35, 34, 1
1, 14, 15, 52, 53, 22, 30, 21, 27, 28, 29, 23, 31, 36, 33, 20, 19, 1
1, 16, 4, 6, 5, 9, 12, 11, 10, 13, 8, 7, 3, 2, 18, 1
1, 17, 32, 24, 37, 47, 46, 45, 44, 25, 26, 1
